28
charge=-1 uma_E_kj=-3293884.078 coeff=-1
O 4.476419 0.747125 1.178911
P 3.494470 -0.123656 0.504808
O 3.205276 -1.538230 0.893496
O 3.820281 -0.150776 -1.095627
O 2.048959 0.675417 0.541345
C 0.903466 0.035622 0.091375
O 0.085152 1.067998 -0.454179
C -1.139482 0.596748 -0.994326
C -1.795787 1.781192 -1.668647
O -0.966692 2.328630 -2.677167
C -1.995250 0.012807 0.119710
O -3.221869 -0.458194 -0.425073
C -1.212409 -1.103687 0.759664
O -1.973348 -1.641119 1.835107
C 0.145757 -0.632536 1.243591
O 0.781189 -1.757359 1.792337
H 4.414529 0.587689 -1.264373
H 1.136341 -0.697087 -0.696350
H -0.943586 -0.183662 -1.743991
H -2.030620 2.533384 -0.904307
H -2.725688 1.462794 -2.137600
H -0.085960 2.399203 -2.287612
H -2.185954 0.796458 0.864969
H -3.587981 -1.067181 0.226840
H -1.051441 -1.885943 0.003762
H -1.351129 -2.183609 2.337981
H 0.004947 0.146839 2.006948
H 1.750405 -1.748866 1.535970
