31
charge=0 uma_E_kj=-2208328.705 coeff=1
C 3.366835 -0.770333 -0.536181
C 2.576665 0.394711 0.006692
O 3.285612 1.133622 0.964261
O 1.369503 -0.119976 0.557177
C 0.360062 0.859564 0.687006
O -0.229738 1.161888 -0.549384
C -0.923767 0.080165 -1.183876
C -1.463102 0.648466 -2.482682
O -2.290473 1.774695 -2.261404
C -2.021701 -0.454258 -0.275256
O -2.589776 -1.579315 -0.921074
C -1.438258 -0.836855 1.067075
O -2.512528 -1.228436 1.906602
C -0.674228 0.327988 1.669168
O -0.086882 -0.037518 2.905715
H 4.309624 -0.412548 -0.947431
H 3.573371 -1.487676 0.261925
H 2.807443 -1.279350 -1.319354
H 2.325856 1.110291 -0.778464
H 3.701751 0.519444 1.580355
H 0.794784 1.792029 1.052489
H -0.227141 -0.733847 -1.408771
H -0.622205 0.902100 -3.138506
H -2.074022 -0.105856 -2.975215
H -1.769176 2.409337 -1.756295
H -2.774777 0.328298 -0.127814
H -3.199080 -1.990515 -0.296479
H -0.747830 -1.678758 0.918772
H -2.162903 -1.327321 2.800730
H -1.378442 1.133081 1.887628
H 0.714521 -0.533115 2.692593
