24

O -1.728688 0.113195 -2.198445
C -1.807730 -1.120923 -1.515264
C -1.013735 -1.112144 -0.225381
O 0.384065 -0.948982 -0.548786
C 0.902466 0.210066 0.050402
O 0.774536 1.325344 -0.809723
C 2.362495 -0.004054 0.400124
O 3.099495 0.101322 -0.811340
C 0.002248 0.461003 1.257043
O 0.068206 1.771951 1.756212
C -1.361578 0.022188 0.733264
O -2.238912 -0.459740 1.733018
H -0.806945 0.405446 -2.175248
H -2.860717 -1.301780 -1.291045
H -1.445691 -1.944126 -2.141142
H -1.134257 -2.068664 0.290371
H 1.578824 1.351628 -1.349709
H 2.472386 -0.993000 0.850093
H 2.662910 0.768120 1.114568
H 4.039206 0.130982 -0.617284
H 0.291755 -0.212647 2.068108
H 0.111148 2.360250 0.989609
H -1.815349 0.853307 0.183707
H -2.536138 0.291260 2.256848
