35

O -4.443729 -1.649006 -0.471640
C -4.063526 -0.281086 -0.486793
C -2.679884 -0.091175 0.097042
O -1.841260 -0.973329 -0.617484
C -0.546446 -1.095164 -0.009861
O 0.186325 -1.862884 -0.899181
P 1.668204 -1.566203 -1.528772
O 1.915332 -2.626924 -2.525660
O 1.742149 -0.112866 -1.905145
O 2.645794 -1.843454 -0.262428
P 2.965610 -1.328572 1.244182
O 1.718460 -1.312128 2.074615
O 4.181092 -2.047893 1.696836
O 3.310584 0.246756 0.986644
C 4.360863 0.536767 0.080429
C 0.005029 0.294843 0.393819
O -0.194963 0.490298 1.793037
C -0.714355 1.422073 -0.330966
O -0.534479 1.363433 -1.724722
C -2.205947 1.369817 0.013513
O -2.481448 2.040267 1.243219
H -3.629353 -2.119858 -0.703771
H -4.790783 0.278012 0.105333
H -4.069539 0.108665 -1.513291
H -2.694101 -0.378118 1.158456
H -0.663861 -1.663853 0.920980
H 5.199655 -0.150838 0.222810
H 3.996522 0.475021 -0.947326
H 4.697757 1.555869 0.284185
H 1.063806 0.355163 0.167253
H 0.502150 -0.096513 2.183344
H -0.328836 2.368733 0.075079
H 0.298219 0.857088 -1.906181
H -2.755446 1.902434 -0.768465
H -1.819598 1.686681 1.860912
