45

O 1.785130 3.627668 -2.070121
C 1.114098 3.888048 -0.848388
C 1.227085 2.668104 0.033688
O 0.568129 1.586513 -0.618524
C 0.511632 0.416446 0.172361
O -0.133466 -0.558731 -0.586858
C -1.529999 -0.693807 -0.395783
C -2.266699 0.606297 -0.696789
O -1.951394 1.108343 -1.971357
O -1.826061 -1.048948 0.931673
C -2.252792 -2.409716 1.022798
C -1.147502 -3.323030 1.534349
O 0.052020 -3.304770 0.780945
C -2.815201 -2.728627 -0.360590
O -4.171969 -2.313211 -0.356025
C -1.973833 -1.868604 -1.300875
O -0.890934 -2.652462 -1.774040
C 1.904133 -0.094876 0.497037
O 1.864296 -1.168617 1.405584
C 2.690108 1.015617 1.163255
O 4.044709 0.652973 1.364402
C 2.670634 2.278372 0.327646
O 3.269816 3.354783 1.025408
H 1.792705 4.432323 -2.594514
H 0.052936 4.098701 -1.021175
H 1.562455 4.730582 -0.314673
H 0.725548 2.893974 0.986286
H -0.038368 0.607823 1.103705
H -2.048050 1.325114 0.099729
H -3.336065 0.397571 -0.666385
H -1.037637 1.426020 -1.930673
H -3.071367 -2.448459 1.745050
H -0.882574 -3.004428 2.542589
H -1.553519 -4.340239 1.599751
H -0.164537 -3.335652 -0.166679
H -2.719545 -3.787408 -0.618691
H -4.532807 -2.430843 -1.241142
H -2.560207 -1.490214 -2.141633
H -0.169076 -2.041731 -1.980644
H 2.390469 -0.375947 -0.447352
H 1.274205 -1.874851 1.080649
H 2.214958 1.231352 2.131823
H 4.050158 -0.190213 1.833091
H 3.183209 2.095728 -0.622593
H 4.125169 3.043032 1.343683
