32

C -1.458919 -3.422303 0.246968
C -0.838757 -2.056408 0.394550
O 0.185462 -1.882123 1.047125
N -1.467516 -1.052790 -0.255989
C -1.042618 0.323174 -0.173862
C -0.181045 0.747591 -1.375537
S 1.298896 -0.271607 -1.510651
C 2.071851 0.288240 -0.002445
O 1.729688 1.292611 0.569651
C 3.187930 -0.616890 0.507716
O 2.950475 -1.964936 0.189436
C 4.515614 -0.205506 -0.104429
C -2.289204 1.200059 -0.138566
O -3.356505 0.810468 -0.584804
N -2.104201 2.433400 0.366367
C -3.182637 3.401823 0.394069
H -2.461593 -3.392175 -0.175968
H -1.482172 -3.906556 1.220767
H -0.818037 -4.015561 -0.405542
H -2.376206 -1.199102 -0.671329
H -0.464277 0.450922 0.740060
H 0.095243 1.797346 -1.296922
H -0.740228 0.600328 -2.300326
H 3.206482 -0.454066 1.591035
H 2.071824 -2.197280 0.533211
H 5.306469 -0.832002 0.305392
H 4.734076 0.837652 0.121617
H 4.489871 -0.340676 -1.186462
H -1.204335 2.671674 0.746986
H -2.828570 4.305356 0.882948
H -4.036763 3.005952 0.941606
H -3.510293 3.643386 -0.616670
