23

C 3.725702 -0.224871 -0.255330
C 2.389179 0.446515 -0.453664
O 2.269515 1.506594 -1.048352
N 1.318970 -0.200229 0.069838
C -0.015553 0.282488 -0.174637
C -0.306840 1.519829 0.693240
S -1.654826 2.570767 0.085011
C -0.969822 -0.878468 0.119648
O -0.554288 -1.936711 0.568734
N -2.269968 -0.652419 -0.140323
C -3.275590 -1.646567 0.181996
H 4.425605 0.499607 0.157006
H 3.669951 -1.092982 0.399558
H 4.102300 -0.535110 -1.229838
H 1.383247 -1.133371 0.450572
H -0.101543 0.574529 -1.225037
H 0.596856 2.119703 0.749283
H -0.584982 1.220761 1.704372
H -1.004322 3.008780 -1.002427
H -2.547016 0.272472 -0.433959
H -4.187563 -1.426695 -0.368449
H -2.912323 -2.632720 -0.097813
H -3.496690 -1.661901 1.250570
