44

C 2.811853 2.309451 1.453866
C 2.080651 1.107511 0.917340
O 1.010688 0.742943 1.396866
N 2.656618 0.456372 -0.107538
C 2.107730 -0.768112 -0.640971
C 0.985925 -0.480939 -1.650489
S -0.090882 -1.904339 -1.987963
S -1.120250 -2.145785 -0.240886
C -2.491205 -0.965966 -0.430715
C -2.306506 0.355085 0.331969
N -3.247013 1.335796 -0.159512
C -2.989918 2.033630 -1.290952
C -4.012935 3.075372 -1.675363
O -1.972535 1.845928 -1.942777
C -2.588476 0.163647 1.819845
O -3.740408 0.201596 2.236409
N -1.510411 -0.067547 2.578629
C -1.610574 -0.261922 4.010293
C 3.280136 -1.520623 -1.280155
O 4.345466 -0.957129 -1.486261
N 3.049833 -2.809558 -1.588007
C 4.034943 -3.608922 -2.291793
H 3.048023 2.127838 2.501527
H 2.141423 3.165731 1.412156
H 3.727084 2.533600 0.910027
H 3.579816 0.693214 -0.443383
H 1.683788 -1.350871 0.180038
H 1.397263 -0.189146 -2.619589
H 0.369034 0.343340 -1.296997
H -2.580140 -0.752543 -1.494228
H -3.401844 -1.464995 -0.095051
H -1.293797 0.726342 0.178017
H -4.090417 1.460346 0.379477
H -4.090987 3.104033 -2.759429
H -3.657036 4.049841 -1.338492
H -4.991942 2.890875 -1.234401
H -0.594344 0.033434 2.158679
H -0.716177 0.138236 4.483917
H -1.703762 -1.318032 4.267327
H -2.488591 0.258514 4.386821
H 2.102044 -3.147946 -1.516352
H 3.900625 -4.656374 -2.030102
H 5.029094 -3.286060 -1.994497
H 3.948113 -3.495863 -3.373769
