20

O 2.026541 -1.986905 -1.144112
C 2.052025 -0.939987 -0.515099
N 3.238081 -0.389804 -0.116790
C 0.838668 -0.190190 -0.118654
C -0.331753 -0.705540 -0.521517
N -1.548370 -0.131671 -0.273501
C -2.763434 -0.880256 -0.517671
C -1.570679 0.999082 0.540114
C -0.467111 1.589748 0.990373
C 0.918882 1.098805 0.664841
H 3.291018 0.531680 0.274440
H 4.078369 -0.819293 -0.461682
H -0.335807 -1.632256 -1.081271
H -3.592774 -0.192133 -0.675541
H -3.010542 -1.550151 0.311895
H -2.642625 -1.474754 -1.421535
H -2.558100 1.374786 0.774729
H -0.574610 2.473256 1.604808
H 1.460730 1.868429 0.095446
H 1.491494 0.957152 1.590729
