19

C -2.582124 -1.230269 0.269951
N -1.407793 -0.331202 0.278900
C -1.520044 0.917565 0.767537
C -0.441290 1.766809 0.764116
C 0.769808 1.322118 0.250566
C 0.874013 0.032440 -0.249160
C 2.109304 -0.613252 -0.853290
N 3.248434 0.102799 -0.830949
O 2.007494 -1.723555 -1.325073
C -0.246989 -0.773219 -0.221360
H -2.940255 -1.338479 -0.750724
H -2.289106 -2.196177 0.670293
H -3.359544 -0.798164 0.891166
H -2.488748 1.199251 1.152312
H -0.553525 2.765186 1.159815
H 1.612380 2.000190 0.245716
H 4.076740 -0.318124 -1.220738
H 3.339336 0.998831 -0.390897
H -0.208092 -1.782746 -0.608182
